p cnf 14 64
-3 -7 14 0
4 5 12 0
-3 -6 -11 0
2 -10 11 0
3 5 14 0
-11 12 -13 0
-1 -8 13 0
7 -8 -14 0
-8 -9 -11 0
-1 -6 -13 0
-4 8 -9 0
-1 -3 -11 0
1 8 -11 0
-1 -3 4 0
-5 -10 -12 0
3 5 9 0
-5 -12 14 0
5 -7 -10 0
1 -6 -12 0
-3 -4 -9 0
-1 -6 -8 0
1 -9 -13 0
1 8 11 0
6 -9 -10 0
-3 5 -11 0
-3 9 -11 0
-9 -11 -12 0
-1 -3 -4 0
-10 11 13 0
-2 3 12 0
3 11 14 0
7 -8 -13 0
1 7 13 0
-1 7 -10 0
1 -4 -12 0
-2 7 -12 0
7 -9 -10 0
-2 -4 10 0
-4 -5 -7 0
4 -9 -13 0
-4 7 -12 0
-3 11 -13 0
-8 11 12 0
-4 6 -14 0
-4 13 -14 0
-3 9 10 0
-1 -4 -13 0
3 7 -10 0
1 -5 7 0
-3 6 13 0
-1 -2 8 0
1 3 -10 0
-2 -9 -14 0
3 8 -11 0
-1 4 -10 0
2 6 -8 0
-3 7 11 0
1 7 11 0
-2 -7 12 0
-6 8 -12 0
-5 12 -13 0
1 2 -13 0
7 -8 12 0
2 -9 -11 0
